Route #1: 3 31 24 28 11 21 14 39 23
Route #2: 4 45 12 50 22 17 49 15 19 26
Route #3: 16 9 46 13 34 32 38 48 2
Route #4: 35 33 43 7 51 29
Route #5: 47 44 10 27 8 5 37
Route #6: 1 30 18 20 42 40
Route #7: 36 6 25 41
Cost 753